rc101_3
0 95 70 57 79 63 80 102 64 92 18 21 20 22 52 19 17 16 15 14 91 82 30 28 26 53 23 24 54 25 27 29 62 2 78 84 12 13 51 9 50 10 8 6 7 11 65 83 58 103 93 60 105 75 48 45 41 40 42 43 44 49 47 46 1 66 59 77 76 98 39 32 31 33 34 36 35 37 38 94 81 68 90 55 67 72 99 97 96 85 0